p edge 50 121
e 0 19
e 1 4
e 1 30
e 1 49
e 2 5
e 2 24
e 2 30
e 3 19
e 3 22
e 3 35
e 3 41
e 3 46
e 3 48
e 4 5
e 4 15
e 4 37
e 5 21
e 5 23
e 5 48
e 6 10
e 6 31
e 6 32
e 7 10
e 7 24
e 7 32
e 7 46
e 7 47
e 9 23
e 9 44
e 10 11
e 10 16
e 10 28
e 10 31
e 10 48
e 11 26
e 11 42
e 12 18
e 12 21
e 12 22
e 12 28
e 12 33
e 12 38
e 13 16
e 13 22
e 13 32
e 13 33
e 13 38
e 14 15
e 14 17
e 14 18
e 14 32
e 14 36
e 14 38
e 15 16
e 15 31
e 16 26
e 16 41
e 16 48
e 17 19
e 17 29
e 17 36
e 17 38
e 17 43
e 18 22
e 18 27
e 18 41
e 19 21
e 19 25
e 19 31
e 20 26
e 20 27
e 20 29
e 20 34
e 20 37
e 20 41
e 20 43
e 21 25
e 21 31
e 21 47
e 21 49
e 22 28
e 22 38
e 23 40
e 23 45
e 24 41
e 25 42
e 25 49
e 26 30
e 26 37
e 27 39
e 27 44
e 27 48
e 28 39
e 28 42
e 28 47
e 28 48
e 29 45
e 30 36
e 30 38
e 31 46
e 32 34
e 32 47
e 32 48
e 33 36
e 33 43
e 33 47
e 35 38
e 35 40
e 35 41
e 35 44
e 36 48
e 37 41
e 37 48
e 38 40
e 39 40
e 39 43
e 40 43
e 40 44
e 41 42
e 43 46
e 46 49
